CMPL model generation - running

CMPL version: 1.11.0
Authors: Thomas Schleiff, Mike Steglich
Distributed under the GPLv3 

create model instance ...
write model instance ...
CMPL model generation - finished

Solver - running


Welcome to IBM(R) ILOG(R) CPLEX(R) Interactive Optimizer 12.7.1.0
  with Simplex, Mixed Integer & Barrier Optimizers
5725-A06 5725-A29 5724-Y48 5724-Y49 5724-Y54 5724-Y55 5655-Y21
Copyright IBM Corp. 1988, 2017.  All Rights Reserved.

Type 'help' for a list of available commands.
Type 'help' followed by a command name for more
information on commands.

CPLEX> Specified objective sense: MINIMIZE
Selected objective  name:  line[1]
Selected RHS        name:  RHS
Selected bound      name:  BOUND
Problem '/tmp/cmpl.T23826.mps' read.
Read time = 0.23 sec. (8.17 ticks)
CPLEX> CPXPARAM_Read_APIEncoding                        "UTF-8"
Tried aggregator 3 times.
MIP Presolve eliminated 19267 rows and 30757 columns.
MIP Presolve modified 340 coefficients.
Aggregator did 603 substitutions.
Reduced MIP has 2485 rows, 3233 columns, and 9435 nonzeros.
Reduced MIP has 3065 binaries, 0 generals, 0 SOSs, and 0 indicators.
Presolve time = 0.15 sec. (40.33 ticks)
Found incumbent of value 450.113142 after 0.21 sec. (59.73 ticks)
Probing fixed 8 vars, tightened 0 bounds.
Probing time = 0.03 sec. (4.17 ticks)
Tried aggregator 1 time.
MIP Presolve eliminated 0 rows and 8 columns.
MIP Presolve modified 29 coefficients.
Reduced MIP has 2485 rows, 3225 columns, and 9419 nonzeros.
Reduced MIP has 3225 binaries, 0 generals, 0 SOSs, and 0 indicators.
Presolve time = 0.01 sec. (8.07 ticks)
Probing time = 0.02 sec. (2.66 ticks)
Clique table members: 5842.
MIP emphasis: balance optimality and feasibility.
MIP search method: dynamic search.
Parallel mode: none, using 1 thread.
Root relaxation solution time = 0.01 sec. (4.35 ticks)

        Nodes                                         Cuts/
   Node  Left     Objective  IInf  Best Integer    Best Bound    ItCnt     Gap

*     0+    0                          450.1131      -45.4949           110.11%
      0     0       86.3360    18      450.1131       86.3360       82   80.82%
*     0+    0                          108.0937       86.3360            20.13%
*     0+    0                           86.8503       86.3360             0.59%
      0     0       86.7783     1       86.8503      Cuts: 25       89    0.08%
*     0+    0                           86.7874       86.7783             0.01%
      0     0        cutoff             86.7874                     89    0.00%
Elapsed time = 0.33 sec. (100.37 ticks, tree = 0.01 MB, solutions = 4)

GUB cover cuts applied:  1
Clique cuts applied:  4
Cover cuts applied:  13
Gomory fractional cuts applied:  7

Root node processing (before b&c):
  Real time             =    0.33 sec. (102.09 ticks)
Sequential b&c:
  Real time             =    0.00 sec. (0.00 ticks)
                          ------------
Total (root+branch&cut) =    0.33 sec. (102.09 ticks)

Solution pool: 4 solutions saved.

MIP - Integer optimal solution:  Objective =  8.6787427000e+01
Solution time =    0.33 sec.  Iterations = 89  Nodes = 0
Deterministic time = 102.19 ticks  (306.90 ticks/sec)

CPLEX> Incumbent solution written to file '/tmp/cmpl.T23826.gsol'.
CPLEX> 
CMPL: Time used for model generation: 1 seconds
CMPL: Time used for solving the model: 1 seconds


Solution written to ASCII file: results/output_generated_conf_0.3/2015-12-07-4/fair-nonlinear.sol

Solver - finished
